HUN,8,6,973
0,21,2,1,1,25,5,13,4,25,3,23
2,11,0,17,1,29,3,26,5,19,4,6
0,28,1,5,2,2,5,21,3,23,4,11
2,8,1,20,0,29,3,10,5,12,4,30
2,6,1,29,0,24,3,30,4,28,5,13
1,15,2,30,0,25,4,17,5,13,3,29
1,26,0,4,2,5,4,29,5,9,3,12
1,26,0,23,2,2,3,21,5,13,4,3
